NAME : gr431.101946.tour
COMMENT : Length = 101946
COMMENT : Found by LKH [Keld Helsgaun] Sat May 25 06:41:50 2013
TYPE : TOUR
DIMENSION : 87
TOUR_SECTION
1
16
26
27
137
143
191
193
221
258
259
269
272
278
277
293
297
301
314
322
319
316
327
373
333
340
342
343
354
353
357
359
406
414
407
408
409
411
413
422
418
419
420
429
430
431
428
427
426
425
424
423
404
405
403
402
362
364
366
367
378
384
387
252
390
251
246
245
247
244
241
240
236
235
233
231
230
228
204
205
82
79
83
68
74
76
75
-1
EOF
